c Maximum weighted clique instances generated from exactcolors.
c cutoff: 2520520.
c A clique of value > scalef (2520520) defines an improving stable sets for coloring.
p edge 39 497
e 1 5
e 1 9
e 1 10
e 1 14
e 1 18
e 1 19
e 1 20
e 1 24
e 1 28
e 1 29
e 1 33
e 1 37
e 1 38
e 1 39
e 2 6
e 2 9
e 2 11
e 2 15
e 2 18
e 2 19
e 2 21
e 2 25
e 2 28
e 2 30
e 2 34
e 2 37
e 2 38
e 2 39
e 3 7
e 3 9
e 3 12
e 3 16
e 3 18
e 3 19
e 3 22
e 3 26
e 3 28
e 3 31
e 3 35
e 3 37
e 3 38
e 3 39
e 4 8
e 4 9
e 4 13
e 4 17
e 4 18
e 4 19
e 4 23
e 4 27
e 4 28
e 4 32
e 4 36
e 4 37
e 4 38
e 4 39
e 5 6
e 5 7
e 5 8
e 5 10
e 5 14
e 5 15
e 5 16
e 5 17
e 5 19
e 5 20
e 5 24
e 5 25
e 5 26
e 5 27
e 5 29
e 5 33
e 5 34
e 5 35
e 5 36
e 5 38
e 5 39
e 6 7
e 6 8
e 6 11
e 6 14
e 6 15
e 6 16
e 6 17
e 6 19
e 6 21
e 6 24
e 6 25
e 6 26
e 6 27
e 6 30
e 6 33
e 6 34
e 6 35
e 6 36
e 6 38
e 6 39
e 7 8
e 7 12
e 7 14
e 7 15
e 7 16
e 7 17
e 7 19
e 7 22
e 7 24
e 7 25
e 7 26
e 7 27
e 7 31
e 7 33
e 7 34
e 7 35
e 7 36
e 7 38
e 7 39
e 8 13
e 8 14
e 8 15
e 8 16
e 8 17
e 8 19
e 8 23
e 8 24
e 8 25
e 8 26
e 8 27
e 8 32
e 8 33
e 8 34
e 8 35
e 8 36
e 8 38
e 8 39
e 9 10
e 9 11
e 9 12
e 9 13
e 9 18
e 9 19
e 9 20
e 9 21
e 9 22
e 9 23
e 9 28
e 9 29
e 9 30
e 9 31
e 9 32
e 9 37
e 9 38
e 9 39
e 10 11
e 10 12
e 10 13
e 10 14
e 10 15
e 10 16
e 10 17
e 10 18
e 10 20
e 10 24
e 10 28
e 10 29
e 10 30
e 10 31
e 10 32
e 10 33
e 10 34
e 10 35
e 10 36
e 10 37
e 10 39
e 11 12
e 11 13
e 11 14
e 11 15
e 11 16
e 11 17
e 11 18
e 11 21
e 11 25
e 11 28
e 11 29
e 11 30
e 11 31
e 11 32
e 11 33
e 11 34
e 11 35
e 11 36
e 11 37
e 11 39
e 12 13
e 12 14
e 12 15
e 12 16
e 12 17
e 12 18
e 12 22
e 12 26
e 12 28
e 12 29
e 12 30
e 12 31
e 12 32
e 12 33
e 12 34
e 12 35
e 12 36
e 12 37
e 12 39
e 13 14
e 13 15
e 13 16
e 13 17
e 13 18
e 13 23
e 13 27
e 13 28
e 13 29
e 13 30
e 13 31
e 13 32
e 13 33
e 13 34
e 13 35
e 13 36
e 13 37
e 13 39
e 14 15
e 14 16
e 14 17
e 14 18
e 14 20
e 14 24
e 14 25
e 14 26
e 14 27
e 14 29
e 14 30
e 14 31
e 14 32
e 14 33
e 14 34
e 14 35
e 14 36
e 14 37
e 14 39
e 15 16
e 15 17
e 15 18
e 15 21
e 15 24
e 15 25
e 15 26
e 15 27
e 15 29
e 15 30
e 15 31
e 15 32
e 15 33
e 15 34
e 15 35
e 15 36
e 15 37
e 15 39
e 16 17
e 16 18
e 16 22
e 16 24
e 16 25
e 16 26
e 16 27
e 16 29
e 16 30
e 16 31
e 16 32
e 16 33
e 16 34
e 16 35
e 16 36
e 16 37
e 16 39
e 17 18
e 17 23
e 17 24
e 17 25
e 17 26
e 17 27
e 17 29
e 17 30
e 17 31
e 17 32
e 17 33
e 17 34
e 17 35
e 17 36
e 17 37
e 17 39
e 18 20
e 18 21
e 18 22
e 18 23
e 18 28
e 18 29
e 18 30
e 18 31
e 18 32
e 18 33
e 18 34
e 18 35
e 18 36
e 18 37
e 18 39
e 19 20
e 19 21
e 19 22
e 19 23
e 19 24
e 19 25
e 19 26
e 19 27
e 19 28
e 19 38
e 19 39
e 20 21
e 20 22
e 20 23
e 20 24
e 20 25
e 20 26
e 20 27
e 20 28
e 20 29
e 20 30
e 20 31
e 20 32
e 20 33
e 20 34
e 20 35
e 20 36
e 20 37
e 20 38
e 21 22
e 21 23
e 21 24
e 21 25
e 21 26
e 21 27
e 21 28
e 21 29
e 21 30
e 21 31
e 21 32
e 21 33
e 21 34
e 21 35
e 21 36
e 21 37
e 21 38
e 22 23
e 22 24
e 22 25
e 22 26
e 22 27
e 22 28
e 22 29
e 22 30
e 22 31
e 22 32
e 22 33
e 22 34
e 22 35
e 22 36
e 22 37
e 22 38
e 23 24
e 23 25
e 23 26
e 23 27
e 23 28
e 23 29
e 23 30
e 23 31
e 23 32
e 23 33
e 23 34
e 23 35
e 23 36
e 23 37
e 23 38
e 24 25
e 24 26
e 24 27
e 24 28
e 24 29
e 24 30
e 24 31
e 24 32
e 24 33
e 24 34
e 24 35
e 24 36
e 24 37
e 24 38
e 25 26
e 25 27
e 25 28
e 25 29
e 25 30
e 25 31
e 25 32
e 25 33
e 25 34
e 25 35
e 25 36
e 25 37
e 25 38
e 26 27
e 26 28
e 26 29
e 26 30
e 26 31
e 26 32
e 26 33
e 26 34
e 26 35
e 26 36
e 26 37
e 26 38
e 27 28
e 27 29
e 27 30
e 27 31
e 27 32
e 27 33
e 27 34
e 27 35
e 27 36
e 27 37
e 27 38
e 28 29
e 28 30
e 28 31
e 28 32
e 28 33
e 28 34
e 28 35
e 28 36
e 28 37
e 28 38
e 29 30
e 29 31
e 29 32
e 29 33
e 29 34
e 29 35
e 29 36
e 29 37
e 29 38
e 30 31
e 30 32
e 30 33
e 30 34
e 30 35
e 30 36
e 30 37
e 30 38
e 31 32
e 31 33
e 31 34
e 31 35
e 31 36
e 31 37
e 31 38
e 32 33
e 32 34
e 32 35
e 32 36
e 32 37
e 32 38
e 33 34
e 33 35
e 33 36
e 33 37
e 33 38
e 34 35
e 34 36
e 34 37
e 34 38
e 35 36
e 35 37
e 35 38
e 36 37
e 36 38
e 37 38
n 1 1123296
n 2 1123296
n 3 1123296
n 4 1123296
n 5 374432
n 6 374432
n 7 374432
n 8 374432
n 9 374432
n 10 345629
n 11 345629
n 12 345629
n 13 345629
n 14 115209
n 15 115209
n 16 115209
n 17 115209
n 18 115209
n 19 460839
n 20 322295
n 21 322295
n 22 322295
n 23 322295
n 24 107431
n 25 107431
n 26 107432
n 27 107431
n 28 107431
n 29 99167
n 30 99167
n 31 99168
n 32 99168
n 33 33056
n 34 33056
n 35 33055
n 36 33055
n 37 33055
n 38 132224
n 39 561951
